0000000000000000
0000000000000000
0000000000000000
0000111111111000
0000111111111000
0000000000011000
0000000000011000
0000011000011000
0000011000011000
0000011000011000
0000011000011000
0000000000000000
0000000000000000
0000000000000000
0000000000000000
0000000000000000